c Standarized MaxSat Instance
c{
c "sha1sum": "18ef9e841f885eee513230f06a3e7f48142dd423",
c "nvars": 448,
c "ncls": 363,
c "total_lits": 1441,
c "nhards": 8,
c "nhard_nlits": 14,
c "nhard_len_stats":
c    { "min": 1,
c      "max": 3,
c      "ave": 1.7500,
c      "stddev": 0.6614 },
c "nsofts": 355,
c "nsoft_nlits": 1427,
c "nsoft_len_stats":
c    { "min": 3,
c      "max": 9,
c      "ave": 4.0197,
c      "stddev": 1.0991 },
c "nsoft_wts": 1,
c "soft_wt_stats":
c    { "min": 1,
c      "max": 1,
c      "ave": 1.0000,
c      "stddev": 0.0000 }
c}
c------------------------------------------------------------
1 -1 8 -2 -94 0
1 8 5 -95 0
1 -8 -5 1 -96 0
1 -8 2 -5 -97 0
1 9 -3 -98 0
1 9 -6 -99 0
1 3 6 -9 -100 0
1 9 7 -101 0
1 8 7 -102 0
1 -4 7 -103 0
1 5 13 -104 0
1 11 13 -105 0
1 -11 -13 -5 -106 0
1 13 12 -107 0
1 -10 12 -108 0
1 -18 19 -109 0
1 19 -2 -110 0
1 18 2 -19 -111 0
1 -15 20 -112 0
1 -16 20 -113 0
1 15 16 -20 -114 0
1 -14 20 -1 -115 0
1 19 -14 -1 -116 0
1 -14 -1 -17 -117 0
1 27 17 -118 0
1 27 11 -119 0
1 -11 -27 -17 -120 0
1 -21 -23 1 25 -121 0
1 -21 -24 1 25 -122 0
1 -21 27 1 25 -123 0
1 -23 -22 1 25 -124 0
1 -22 -24 1 25 -125 0
1 27 -22 1 25 -126 0
1 -21 -23 1 26 -127 0
1 -21 -24 1 26 -128 0
1 -21 27 1 26 -129 0
1 -23 -22 1 26 -130 0
1 -22 -24 1 26 -131 0
1 27 -22 1 26 -132 0
1 -10 -18 -1 -133 0
1 -10 -18 28 -134 0
1 -31 32 -135 0
1 -5 32 -136 0
1 -32 5 31 -137 0
1 -29 33 -138 0
1 33 -30 -139 0
1 29 30 -33 -140 0
1 -33 32 -141 0
1 -3 32 -142 0
1 37 34 -143 0
1 2 17 37 -144 0
1 -37 -2 -34 -145 0
1 -37 -34 -17 -146 0
1 38 35 -147 0
1 38 12 -148 0
1 -35 -12 -38 -149 0
1 38 36 -150 0
1 36 37 -151 0
1 18 41 -152 0
1 3 -36 41 -153 0
1 -41 -18 -3 -154 0
1 -41 -18 36 -155 0
1 15 41 40 39 -156 0
1 41 40 -12 39 -157 0
1 15 30 40 39 -158 0
1 30 40 -12 39 -159 0
1 15 41 39 1 -160 0
1 41 -12 39 1 -161 0
1 15 30 39 1 -162 0
1 30 -12 39 1 -163 0
1 -34 43 -164 0
1 -26 43 -165 0
1 34 26 -43 -166 0
1 -7 43 -167 0
1 -7 42 -168 0
1 47 44 -169 0
1 45 47 -170 0
1 47 46 -171 0
1 -44 -45 -46 -47 -172 0
1 48 -24 -173 0
1 -34 48 -174 0
1 24 -48 34 -175 0
1 -40 48 -176 0
1 -40 47 -177 0
1 14 -22 49 -178 0
1 18 -22 49 -179 0
1 -16 50 -180 0
1 50 -45 -181 0
1 45 -50 16 -182 0
1 50 -2 -183 0
1 -14 50 -184 0
1 -46 51 -185 0
1 -3 51 -186 0
1 46 3 -51 -187 0
1 -16 40 10 26 -188 0
1 40 10 -24 26 -189 0
1 -16 -17 10 26 -190 0
1 -17 10 -24 26 -191 0
1 -16 51 10 26 -192 0
1 51 10 -24 26 -193 0
1 55 7 56 -25 -194 0
1 55 52 56 -25 -195 0
1 55 53 56 -25 -196 0
1 55 56 -25 54 -197 0
1 55 7 -34 -25 -198 0
1 55 52 -34 -25 -199 0
1 55 53 -34 -25 -200 0
1 55 -34 -25 54 -201 0
1 57 -6 58 -29 -45 -49 -34 -59 -202 0
1 57 -6 58 -29 -49 -34 -59 -30 -203 0
1 15 -62 -60 -204 0
1 -62 -60 11 -205 0
1 -7 -62 -60 -206 0
1 15 -61 -62 -207 0
1 11 -61 -62 -208 0
1 -7 -62 -61 -209 0
1 64 25 -210 0
1 55 64 -211 0
1 -55 -64 -25 -212 0
1 30 57 59 40 17 42 21 -63 -213 0
1 30 57 59 40 17 64 42 21 -214 0
1 66 -60 -215 0
1 66 -42 -216 0
1 60 42 -66 -217 0
1 55 53 65 17 -218 0
1 53 65 17 4 -219 0
1 66 53 65 17 -220 0
1 67 44 -221 0
1 67 60 -222 0
1 -44 -67 -60 -223 0
1 -40 68 39 -224 0
1 68 7 62 -225 0
1 -7 -68 -39 -226 0
1 -7 40 -68 -227 0
1 -62 -68 -39 -228 0
1 40 -62 -68 -229 0
1 68 42 61 -230 0
1 67 42 61 -231 0
1 -55 70 -232 0
1 70 -69 -233 0
1 -10 70 -234 0
1 -70 55 69 10 -235 0
1 -7 53 21 -5 -236 0
1 -26 -7 53 -5 -237 0
1 70 53 21 -5 -238 0
1 -26 70 53 -5 -239 0
1 18 40 69 62 -240 0
1 45 40 69 62 -241 0
1 71 -52 -242 0
1 -1 71 -243 0
1 52 1 -71 -244 0
1 72 -2 -245 0
1 72 69 -246 0
1 -72 2 -69 -247 0
1 73 -61 -248 0
1 -58 73 -249 0
1 61 58 -73 -250 0
1 21 25 -251 0
1 73 25 -252 0
1 72 25 -253 0
1 71 25 -254 0
1 63 25 -255 0
1 1 -16 -60 -256 0
1 17 -16 -60 -257 0
1 1 -16 -54 -258 0
1 17 -16 -54 -259 0
1 -2 -3 17 60 -260 0
1 45 -2 -3 60 -261 0
1 -2 -3 60 62 -262 0
1 -2 -3 39 60 -263 0
1 -2 -3 60 21 -264 0
1 -2 17 60 -61 -265 0
1 45 -2 60 -61 -266 0
1 -2 60 62 -61 -267 0
1 -2 39 60 -61 -268 0
1 -2 60 21 -61 -269 0
1 -2 17 60 -25 -270 0
1 45 -2 60 -25 -271 0
1 -2 60 62 -25 -272 0
1 -2 39 60 -25 -273 0
1 -2 60 21 -25 -274 0
1 -58 -15 -3 17 -275 0
1 -58 -15 17 -54 -276 0
1 -58 -15 -29 17 -277 0
1 -58 -3 17 7 -278 0
1 -58 17 7 -54 -279 0
1 -58 -29 17 7 -280 0
1 74 21 62 25 -281 0
1 15 74 21 62 -282 0
1 16 60 21 -283 0
1 -40 60 21 -284 0
1 60 21 -5 -285 0
1 60 21 54 -286 0
1 -6 75 -287 0
1 -45 75 -288 0
1 45 -75 6 -289 0
1 76 -63 -290 0
1 -75 76 -291 0
1 63 75 -76 -292 0
1 -58 76 -293 0
1 7 -49 -63 -294 0
1 40 -49 -63 -295 0
1 17 -49 -63 -296 0
1 25 -49 -63 -297 0
1 -58 77 -298 0
1 77 -62 -53 -299 0
1 58 62 -77 -300 0
1 58 53 -77 -301 0
1 78 -31 -302 0
1 -26 78 -303 0
1 -78 31 26 -304 0
1 -3 78 -305 0
1 77 -3 -306 0
1 55 58 -307 0
1 58 -42 -308 0
1 58 -62 -309 0
1 58 60 -310 0
1 55 1 -311 0
1 -42 1 -312 0
1 -62 1 -313 0
1 60 1 -314 0
1 55 29 -315 0
1 -42 29 -316 0
1 -62 29 -317 0
1 60 29 -318 0
1 55 -17 -319 0
1 -42 -17 -320 0
1 -62 -17 -321 0
1 60 -17 -322 0
1 23 55 -323 0
1 23 -42 -324 0
1 23 -62 -325 0
1 23 60 -326 0
1 55 44 -327 0
1 -42 44 -328 0
1 -62 44 -329 0
1 60 44 -330 0
1 53 79 -331 0
1 -21 -11 79 -332 0
1 -79 -53 11 -333 0
1 -79 21 -53 -334 0
1 55 65 46 1 -335 0
1 55 65 62 1 -336 0
1 65 79 46 1 -337 0
1 65 79 62 1 -338 0
1 65 46 29 1 -339 0
1 65 62 29 1 -340 0
1 42 80 -341 0
1 -57 80 -342 0
1 -80 57 -42 -343 0
1 80 -25 -344 0
1 -45 80 -345 0
1 81 -10 -346 0
1 -26 81 -347 0
1 10 26 -81 -348 0
1 -17 82 -349 0
1 82 -54 -350 0
1 17 54 -82 -351 0
1 -14 82 -22 1 -352 0
1 81 -14 -22 1 -353 0
1 -14 -31 82 1 -354 0
1 81 -14 -31 1 -355 0
1 -7 53 -45 -46 65 74 60 -356 0
1 -7 -65 -22 -30 -357 0
1 23 -65 -22 -30 -358 0
1 -7 -45 -22 -30 -359 0
1 23 -45 -22 -30 -360 0
1 39 83 44 -361 0
1 -46 83 -362 0
1 -44 -83 46 -363 0
1 -83 46 -39 -364 0
1 -18 -69 -365 0
1 -69 83 -366 0
1 -34 84 -367 0
1 -56 84 -60 -368 0
1 -84 56 34 -369 0
1 34 60 -84 -370 0
1 -55 52 -371 0
1 23 52 -372 0
1 84 52 -373 0
1 15 -36 -23 62 -63 -374 0
1 15 -6 -23 62 -63 -375 0
1 15 -36 -23 -63 31 -376 0
1 15 -6 -23 -63 31 -377 0
1 85 29 -378 0
1 52 85 -379 0
1 -85 -29 -52 -380 0
1 -44 65 85 21 -381 0
1 -55 65 85 21 -382 0
1 -44 65 21 46 -383 0
1 -55 65 21 46 -384 0
1 -18 24 -69 10 35 -385 0
1 24 -69 -53 10 35 -386 0
1 24 -69 -31 10 35 -387 0
1 -18 63 24 -69 35 -388 0
1 63 24 -69 -53 35 -389 0
1 63 24 -69 -31 35 -390 0
1 -18 24 -74 10 35 -391 0
1 24 -74 -53 10 35 -392 0
1 24 -31 -74 10 35 -393 0
1 -18 63 24 -74 35 -394 0
1 63 24 -74 -53 35 -395 0
1 63 24 -31 -74 35 -396 0
1 -7 86 -60 -397 0
1 86 -74 -398 0
1 -86 7 74 -399 0
1 -86 74 60 -400 0
1 62 -17 -401 0
1 86 -17 -402 0
1 55 -61 28 26 -403 0
1 15 55 -61 28 -404 0
1 87 16 -405 0
1 -7 -18 87 -406 0
1 63 87 -407 0
1 -29 87 -408 0
1 -16 7 -87 -63 29 -409 0
1 18 -16 -87 -63 29 -410 0
1 88 -45 -411 0
1 88 -6 -412 0
1 45 6 -88 -413 0
1 88 -22 -24 -414 0
1 87 -22 -24 -415 0
1 -28 49 -416 0
1 23 -28 -417 0
1 -28 61 -418 0
1 -56 42 -419 0
1 53 -56 -420 0
1 -56 22 -421 0
1 -29 -56 -422 0
1 89 4 -423 0
1 89 -24 -424 0
1 -4 24 -89 -425 0
1 -55 58 -426 0
1 58 -52 -427 0
1 58 -42 -428 0
1 89 58 -429 0
1 90 35 -430 0
1 90 25 -431 0
1 90 30 -432 0
1 -90 -35 -25 -30 -433 0
1 14 -59 -54 -434 0
1 90 14 -59 -435 0
1 -59 91 -436 0
1 -42 91 -437 0
1 59 42 -91 -438 0
1 92 3 -439 0
1 92 -31 -440 0
1 -3 -92 31 -441 0
1 -92 91 -442 0
1 -53 91 -443 0
1 -18 -65 -6 7 -444 0
1 -18 -65 -6 35 -445 0
1 -18 -65 -6 -55 -446 0
1 -18 -65 -6 -24 -447 0
1 -18 -65 -6 49 -448 0
h 12 0
h 62 0
h 15 11 0
h -7 93 0
h -21 93 0
h 7 21 -93 0
h 93 61 0
h -58 0
